300
200
160
160
160
159
159
159
158
158
158
157
156
155
154
154
153
152
151
151
150
150
150
150
149
149
149
148
148
147
147
147
146
146
145
145
145
145
145
145
144
144
144
143
143
143
143
142
142
142
141
140
139
139
138
138
138
138
138
138
137
137
136
136
136
135
135
133
133
133
132
132
132
130
129
129
129
128
128
128
127
126
126
125
125
125
125
124
124
124
124
124
124
124
123
122
122
122
121
121
120
120
119
118
118
118
118
117
117
116
116
116
116
116
115
115
115
114
114
113
113
113
112
111
110
110
110
110
109
108
107
107
106
106
106
106
105
105
105
105
105
104
103
103
103
102
102
102
102
101
100
99
99
99
98
97
97
97
97
96
95
95
95
94
94
94
93
92
92
92
92
92
92
91
91
90
90
90
89
88
88
87
87
87
87
86
86
85
85
85
85
84
83
83
83
82
82
82
82
81
80
80
80
79
79
78
77
77
77
76
76
76
76
76
76
75
75
74
74
74
73
73
72
72
71
70
70
70
70
70
69
69
68
68
68
68
66
66
66
66
65
65
64
63
62
62
61
61
60
60
60
60
59
59
59
58
57
57
57
56
56
56
55
55
55
54
54
54
53
52
52
51
51
50
50
50
50
48
48
48
47
47
46
45
45
44
44
43
43
43
43
43
43
42
42
41
41
41
41
40
40
40
